16498.0	21.0
18245.0	28.0
19756.0	29.0
23299.0	31.0
20366.0	30.0
23673.0	42.0
16683.0	27.0
15827.0	20.0
11950.0	6.0
12028.0	12.0
12127.0	13.0
12289.0	14.0
12374.0	15.0
12516.0	16.0
12915.0	17.0
13196.0	18.0
